; benchmark generated from python API
(set-info :status unknown)
(declare-fun S_1 () Real)
(declare-fun S_2 () Real)
(declare-fun A_1 () Real)
(declare-fun L_1 () Real)
(declare-fun Q_2 () Real)
(declare-fun L_2 () Real)
(declare-fun A_2 () Real)
(declare-fun S_0 () Real)
(declare-fun L_0 () Real)
(declare-fun A_0 () Real)
(assert
 (let (($x569 (>= Q_2 0.0)))
 (let (($x680 (<= Q_2 0.0)))
 (let (($x697 (not $x680)))
 (let (($x695 (<= (+ (* (- 1.0) L_1) A_1 (* (- 1.0) S_2)) 0.0)))
 (let ((?x334 (* (- 1.0) L_1)))
 (let ((?x299 (* (- 1.0) L_2)))
 (let (($x276 (= ?x299 ?x334)))
 (let ((?x306 (* (- 1.0) Q_2)))
 (let ((?x330 (* (- 1.0) A_0)))
 (let ((?x528 (* (- 1.0) A_2)))
 (let (($x844 (<= (+ ?x528 L_2 ?x330 ?x306 L_0 (* (- 2.0) L_1) (* 2.0 A_1)) 0.0)))
 (let (($x1104 (or (<= (+ ?x528 L_2 ?x330 Q_2 L_0 (* 2.0 S_1)) 0.0) $x680)))
 (let ((?x566 (* (- 2.0) A_1)))
 (let ((?x565 (* 2.0 L_1)))
 (let ((?x325 (* (- 1.0) L_0)))
 (let (($x250 (or (= ?x334 ?x325) $x680 (<= (+ A_2 ?x299 A_0 Q_2 ?x325 ?x565 ?x566) 0.0) (<= (+ ?x330 Q_2 S_0 L_1) 0.0))))
 (let (($x1201 (or (not (<= (+ ?x299 ?x306 (* (- 1.0) S_1) A_0) 0.0)) (<= (+ A_0 ?x306 (* (- 1.0) S_1) ?x334) 0.0))))
 (let (($x646 (or (<= (+ A_2 ?x299 A_0 ?x306 ?x325 (* (- 2.0) S_2)) 0.0) $x695)))
 (and (<= ?x334 ?x325) (<= ?x299 ?x334) $x646 (or $x276 (<= (+ ?x299 ?x306 (* (- 1.0) S_1) A_0) 0.0)) $x1201 $x250 $x1104 (or $x276 $x680 $x844) (or $x276 $x695 $x697) $x569 (<= (+ (* (- 1.0) S_1) S_0) 0.0) (<= (+ ?x330 L_0 S_0) 0.0) (<= (+ ?x528 L_2 Q_2 S_2) 0.0) (<= (+ L_1 (* (- 1.0) A_1) S_1) 0.0) (<= (+ (* (- 1.0) S_2) S_1) 0.0)))))))))))))))))))))
(check-sat)
